(set-logic ALL)
(declare-const GEN1 (_ BitVec 1))
(declare-const GEN2 (_ BitVec 11))
(declare-const GEN3 (_ BitVec 52))
(declare-const GEN4 (_ BitVec 1))
(declare-const GEN5 (_ BitVec 11))
(declare-const GEN6 (_ BitVec 52))
(declare-const GEN7 (_ BitVec 1))
(declare-const GEN8 (_ BitVec 11))
(declare-const GEN9 (_ BitVec 52))
(declare-const BAV10 Bool)
(declare-const BAV11 Bool)
(declare-const BAV12 Bool)
(declare-const BAV13 Bool)
(declare-const BAV14 Bool)
(define-sort FPN () (_ FloatingPoint 11 53))
(declare-fun x () FPN)
(declare-fun y () FPN)
(declare-fun r () FPN)
(declare-fun q () FPN)
(assert (= x (fp GEN1 GEN2 GEN3)))
(assert (= y (fp GEN4 GEN5 GEN6)))
(assert (= r (fp GEN7 GEN8 GEN9)))
(assert (= q (fp.div roundTowardZero x y)))
(assert (not (= q r)))
(assert (= BAV10 (= x (fp GEN1 GEN2 GEN3))))
(assert (= BAV11 (= y (fp GEN4 GEN5 GEN6))))
(assert (= BAV12 (= r (fp GEN7 GEN8 GEN9))))
(assert (= BAV13 (= q (fp.div roundTowardZero x y))))
(assert (= BAV14 (= q r)))
(check-sat)
(check-sat-using smt)